
Gurobi 9.1.2 (win64) logging started Tue Dec  7 10:42:36 2021

Gurobi Optimizer version 9.1.2 build v9.1.2rc0 (win64)
Thread count: 8 physical cores, 8 logical processors, using up to 8 threads
Optimize a model with 1 rows, 41 columns and 40 nonzeros
Model fingerprint: 0x45f8dbbf
Variable types: 1 continuous, 40 integer (40 binary)
Coefficient statistics:
  Matrix range     [1e+00, 1e+01]
  Objective range  [1e+00, 1e+00]
  Bounds range     [3e+00, 3e+00]
  RHS range        [1e+01, 1e+01]
Presolve time: 0.00s
Presolved: 1 rows, 41 columns, 40 nonzeros
Variable types: 1 continuous, 40 integer (40 binary)

Root simplex log...

Iteration    Objective       Primal Inf.    Dual Inf.      Time
       0   -2.5904067e+00   1.781891e-01   0.000000e+00     15s
       2   -2.5904067e+00   0.000000e+00   0.000000e+00     15s

Root relaxation: objective -2.590407e+00, 2 iterations, 0.00 seconds

    Nodes    |    Current Node    |     Objective Bounds      |     Work
 Expl Unexpl |  Obj  Depth IntInf | Incumbent    BestBd   Gap | It/Node Time

     0     0   -2.59041    0    1          -   -2.59041      -     -   14s
H    0     0                       0.6952528   -2.59041   473%     -   14s
H    0     0                      -2.5904067   -2.59041  0.00%     -   14s

Cutting planes:
  Lazy constraints: 2

Explored 1 nodes (2 simplex iterations) in 14.89 seconds
Thread count was 8 (of 8 available processors)

Solution count 2: -2.59041 0.695253 
No other solutions better than -2.59041

Optimal solution found (tolerance 1.00e-04)
Best objective -2.590406674722e+00, best bound -2.590406674722e+00, gap 0.0000%

User-callback calls 72, time in user-callback 18.57 sec
